c preprocessed version of OddGraph_4, 35 vertices, 70 edges
p td 35 70
0 9
0 11
0 24
0 29
1 6
1 12
1 33
1 34
2 13
2 21
3 13
3 20
4 6
4 11
4 21
5 9
5 15
5 16
6 27
7 16
7 18
7 21
7 24
8 9
8 19
8 20
10 18
10 22
11 22
11 26
12 2
12 9
12 10
13 17
14 24
15 25
15 27
16 17
17 22
18 20
18 27
19 21
19 25
19 28
20 26
22 25
23 3
23 4
23 5
23 32
29 13
29 27
29 28
30 2
30 14
30 15
30 26
31 6
31 8
31 14
31 17
32 10
32 14
32 28
33 16
33 26
33 28
34 3
34 24
34 25
